minerios_pl_metas.lp
\ENCODING=ISO-8859-1
\Problem name: IloCplex

Minimize
 obj1: 10 dnm(Ferro)#15 + 100 dnm(Al2O3)#16 + 10 dpm(Ferro)#17
       + 100 dpm(Al2O3)#18 + 10 dn(Ferro)#19 + dn(Al2O3)#20 + 10 dp(Ferro)#21
       + dp(Al2O3)#22
Subject To
 QuantidadeP(Ferro)#0: 5.63999938964844 x(Pilha1)#0
                       - 7.08000183105469 x(Pilha2)#1
                       + 0.189998626708984 x(Pilha3)#2
                       + 2.36000061035156 x(Pilha4)#3
                       - 3.06000137329102 x(Pilha5)#4
                       + 1.97000122070312 x(Pilha6)#5
                       + 0.459999084472656 x(Pilha7)#6
                       - 0.479999542236328 x(Pilha8)#7
                       + 9.09000015258789 x(Pilha9)#8 - x(Pilha10)#9
                       + 2.09000015258789 x(Pilha11)#10
                       - 2.22999954223633 x(Pilha12)#11
                       - 3.4900016784668 x(Pilha13)#12
                       + 5.95999908447266 x(Pilha14)#13
                       - 4.90999984741211 x(Pilha15)#14 + 15 dnm(Ferro)#15
                       - 15 dpm(Ferro)#17  = 0
 QuantidadeP(Al2O3)#1: 0.369999974966049 x(Pilha1)#0
                       + 0.0300000011920929 x(Pilha2)#1
                       + 0.349999994039536 x(Pilha3)#2
                       + 0.0699999928474426 x(Pilha4)#3
                       + 0.310000002384186 x(Pilha5)#4
                       + 0.390000015497208 x(Pilha6)#5
                       + 0.0499999970197678 x(Pilha7)#6
                       + 0.169999986886978 x(Pilha8)#7
                       + 0.799999952316284 x(Pilha9)#8
                       + 0.109999984502792 x(Pilha10)#9
                       + 0.0699999928474426 x(Pilha11)#10
                       + 0.0499999970197678 x(Pilha12)#11
                       + 0.0899999886751175 x(Pilha13)#12
                       + 0.139999985694885 x(Pilha14)#13
                       + 0.0199999958276749 x(Pilha15)#14 + 15 dnm(Al2O3)#16
                       - 15 dpm(Al2O3)#18  = 0
 QuantidadeU(Ferro)#2: 8.13999938964844 x(Pilha1)#0
                       - 4.58000183105469 x(Pilha2)#1
                       + 2.68999862670898 x(Pilha3)#2
                       + 4.86000061035156 x(Pilha4)#3
                       - 0.560001373291016 x(Pilha5)#4
                       + 4.47000122070312 x(Pilha6)#5
                       + 2.95999908447266 x(Pilha7)#6
                       + 2.02000045776367 x(Pilha8)#7
                       + 11.5900001525879 x(Pilha9)#8 + 1.5 x(Pilha10)#9
                       + 4.59000015258789 x(Pilha11)#10
                       + 0.270000457763672 x(Pilha12)#11
                       - 0.990001678466797 x(Pilha13)#12
                       + 8.45999908447266 x(Pilha14)#13
                       - 2.40999984741211 x(Pilha15)#14 + 15 dn(Ferro)#19 >= 0
 QuantidadeU(Al2O3)#3: 0.399999976158142 x(Pilha1)#0
                       + 0.0600000098347664 x(Pilha2)#1
                       + 0.379999995231628 x(Pilha3)#2
                       + 0.100000001490116 x(Pilha4)#3
                       + 0.340000003576279 x(Pilha5)#4
                       + 0.420000016689301 x(Pilha6)#5
                       + 0.0800000056624413 x(Pilha7)#6
                       + 0.199999988079071 x(Pilha8)#7
                       + 0.829999983310699 x(Pilha9)#8
                       + 0.139999985694885 x(Pilha10)#9
                       + 0.100000001490116 x(Pilha11)#10
                       + 0.0800000056624413 x(Pilha12)#11
                       + 0.119999997317791 x(Pilha13)#12
                       + 0.169999986886978 x(Pilha14)#13
                       + 0.0500000044703484 x(Pilha15)#14 + 15 dn(Al2O3)#20
                       >= 0
 c5#4:                 x(Pilha1)#0 <= 1500
 c6#5:                 x(Pilha2)#1 <= 2000
 c7#6:                 x(Pilha3)#2 <= 1700
 c8#7:                 x(Pilha4)#3 <= 1450
 c9#8:                 x(Pilha5)#4 <= 1250
 c10#9:                x(Pilha6)#5 <= 1890
 c11#10:               x(Pilha7)#6 <= 1640
 c12#11:               x(Pilha8)#7 <= 1124
 c13#12:               x(Pilha9)#8 <= 1900
 c14#13:               x(Pilha10)#9 <= 990
 c15#14:               x(Pilha11)#10 <= 1540
 c16#15:               x(Pilha12)#11 <= 1320
 c17#16:               x(Pilha13)#12 <= 1240
 c18#17:               x(Pilha14)#13 <= 1245
 c19#18:               x(Pilha15)#14 <= 1859
 c20#19:               x(Pilha1)#0 + x(Pilha2)#1 + x(Pilha3)#2 + x(Pilha4)#3
                       + x(Pilha5)#4 + x(Pilha6)#5 + x(Pilha7)#6 + x(Pilha8)#7
                       + x(Pilha9)#8 + x(Pilha10)#9 + x(Pilha11)#10
                       + x(Pilha12)#11 + x(Pilha13)#12 + x(Pilha14)#13
                       + x(Pilha15)#14  = 6000
 c21#20:               x(Pilha1)#0 >= 0
 c22#21:               x(Pilha2)#1 >= 0
 c23#22:               x(Pilha3)#2 >= 0
 c24#23:               x(Pilha4)#3 >= 0
 c25#24:               x(Pilha5)#4 >= 0
 c26#25:               x(Pilha6)#5 >= 0
 c27#26:               x(Pilha7)#6 >= 0
 c28#27:               x(Pilha8)#7 >= 0
 c29#28:               x(Pilha9)#8 >= 0
 c30#29:               x(Pilha10)#9 >= 0
 c31#30:               x(Pilha11)#10 >= 0
 c32#31:               x(Pilha12)#11 >= 0
 c33#32:               x(Pilha13)#12 >= 0
 c34#33:               x(Pilha14)#13 >= 0
 c35#34:               x(Pilha15)#14 >= 0
End
