minerios_metas/minerios_pl_metas.txt
15 2

Pilha1  1500
Pilha2  2000
Pilha3  1700
Pilha4  1450
Pilha5  1250
Pilha6  1890
Pilha7  1640
Pilha8  1124
Pilha9  1900
Pilha10 990
Pilha11 1540
Pilha12 1320
Pilha13 1240
Pilha14 1245
Pilha15 1859

Ferro    52.64 39.92 47.19 49.36 43.94 48.97 47.46 46.52 56.09 46.00 49.09 44.77 43.51 52.96 42.09     44.5     47.0     49.5        5           5         5        5
Al2O3    0.52  0.18  0.50  0.22  0.46  0.54  0.20  0.32  0.95  0.26  0.22  0.20  0.24  0.29  0.17     0.12     0.15     0.17      100         100         1        1

6000